(set-info :smt-lib-version 2.6)
(set-logic QF_UF)
(set-info :source |
Generated by: Aman Goel (amangoel@umich.edu), Karem A. Sakallah (karem@umich.edu)
Generated on: 2018-04-06

Generated by the tool Averroes 2 (successor of [1]) which implements safety property
verification on hardware systems.

This SMT problem belongs to a set of SMT problems generated by applying Averroes 2
to benchmarks derived from [2-5].

A total of 412 systems (345 from [2], 19 from [3], 26 from [4], 22 from [5]) were
syntactically converted from their original formats (using [6, 7]), and given to 
Averroes 2 to perform property checking with abstraction (wide bit-vectors -> terms, 
wide operators -> UF) using SMT solvers [8, 9].

[1] Lee S., Sakallah K.A. (2014) Unbounded Scalable Verification Based on Approximate
Property-Directed Reachability and Datapath Abstraction. In: Biere A., Bloem R. (eds)
Computer Aided Verification. CAV 2014. Lecture Notes in Computer Science, vol 8559.
Springer, Cham
[2] http://fmv.jku.at/aiger/index.html#beem
[3] http://www.cs.cmu.edu/~modelcheck/vcegar
[4] http://www.cprover.org/hardware/v2c
[5] http://github.com/aman-goel/verilogbench
[6] http://www.clifford.at/yosys
[7] http://github.com/chengyinwu/V3
[8] http://github.com/Z3Prover/z3
[9] http://github.com/SRI-CSL/yices2

id: reader_writer.2.prop1
query-maker: "Yices 2"
query-time: 0.001000 ms
query-class: abstract
query-category: oneshot
query-type: regular
status: unsat
|)
(set-info :license "https://creativecommons.org/licenses/by/4.0/")
(set-info :category "industrial")

;
(set-info :status unsat)
(declare-sort utt$8 0)
(declare-sort utt$32 0)
(declare-fun y$1 () Bool)
(declare-fun y$11 () Bool)
(declare-fun y$13 () Bool)
(declare-fun y$15 () Bool)
(declare-fun y$17 () Bool)
(declare-fun y$19 () Bool)
(declare-fun y$21 () Bool)
(declare-fun y$23 () Bool)
(declare-fun y$25 () Bool)
(declare-fun y$27 () Bool)
(declare-fun y$29 () Bool)
(declare-fun y$3 () Bool)
(declare-fun y$31 () Bool)
(declare-fun y$33 () Bool)
(declare-fun y$3303 () Bool)
(declare-fun y$3304 () Bool)
(declare-fun y$3392 () Bool)
(declare-fun y$3399 () Bool)
(declare-fun y$35 () Bool)
(declare-fun y$37 () Bool)
(declare-fun y$39 () Bool)
(declare-fun y$41 () Bool)
(declare-fun y$43 () Bool)
(declare-fun y$45 () Bool)
(declare-fun y$47 () Bool)
(declare-fun y$49 () Bool)
(declare-fun y$5 () Bool)
(declare-fun y$51 () Bool)
(declare-fun y$53 () Bool)
(declare-fun y$55 () Bool)
(declare-fun y$57 () Bool)
(declare-fun y$59 () Bool)
(declare-fun y$61 () Bool)
(declare-fun y$63 () Bool)
(declare-fun y$65 () Bool)
(declare-fun y$67 () Bool)
(declare-fun y$69 () Bool)
(declare-fun y$7 () Bool)
(declare-fun y$71 () Bool)
(declare-fun y$73 () Bool)
(declare-fun y$75 () Bool)
(declare-fun y$77 () Bool)
(declare-fun y$79 () Bool)
(declare-fun y$81 () Bool)
(declare-fun y$83 () Bool)
(declare-fun y$85 () Bool)
(declare-fun y$88 () Bool)
(declare-fun y$9 () Bool)
(declare-fun y$a_idle_reader_0 () Bool)
(declare-fun y$a_idle_reader_1 () Bool)
(declare-fun y$a_idle_reader_10 () Bool)
(declare-fun y$a_idle_reader_11 () Bool)
(declare-fun y$a_idle_reader_2 () Bool)
(declare-fun y$a_idle_reader_3 () Bool)
(declare-fun y$a_idle_reader_4 () Bool)
(declare-fun y$a_idle_reader_5 () Bool)
(declare-fun y$a_idle_reader_6 () Bool)
(declare-fun y$a_idle_reader_7 () Bool)
(declare-fun y$a_idle_reader_8 () Bool)
(declare-fun y$a_idle_reader_9 () Bool)
(declare-fun y$a_idle_writer_0 () Bool)
(declare-fun y$a_idle_writer_1 () Bool)
(declare-fun y$a_idle_writer_2 () Bool)
(declare-fun y$a_idle_writer_3 () Bool)
(declare-fun y$a_idle_writer_4 () Bool)
(declare-fun y$a_idle_writer_5 () Bool)
(declare-fun y$a_idle_writer_6 () Bool)
(declare-fun y$a_q_error () Bool)
(declare-fun y$a_readers_active () Bool)
(declare-fun y$a_reading_reader_0 () Bool)
(declare-fun y$a_reading_reader_1 () Bool)
(declare-fun y$a_reading_reader_10 () Bool)
(declare-fun y$a_reading_reader_11 () Bool)
(declare-fun y$a_reading_reader_2 () Bool)
(declare-fun y$a_reading_reader_3 () Bool)
(declare-fun y$a_reading_reader_4 () Bool)
(declare-fun y$a_reading_reader_5 () Bool)
(declare-fun y$a_reading_reader_6 () Bool)
(declare-fun y$a_reading_reader_7 () Bool)
(declare-fun y$a_reading_reader_8 () Bool)
(declare-fun y$a_reading_reader_9 () Bool)
(declare-fun y$a_ready () Bool)
(declare-fun y$a_writer_active () Bool)
(declare-fun y$a_writing_writer_0 () Bool)
(declare-fun y$a_writing_writer_1 () Bool)
(declare-fun y$a_writing_writer_2 () Bool)
(declare-fun y$a_writing_writer_3 () Bool)
(declare-fun y$a_writing_writer_4 () Bool)
(declare-fun y$a_writing_writer_5 () Bool)
(declare-fun y$a_writing_writer_6 () Bool)
(declare-fun y$dve_invalid () Bool)
(declare-fun y$id46 () Bool)
(declare-fun y$id46_op () Bool)
(declare-fun y$n0s32 () utt$32)
(declare-fun y$n0s8 () utt$8)
(declare-fun y$n1s32 () utt$32)
(declare-fun y$n1s8 () utt$8)
(declare-fun y$prop () Bool)
(declare-fun y$v_activeR () utt$8)
(assert (not (= y$n0s8 y$n1s8)))
(assert (not (= y$n1s32 y$n0s32)))
(assert (= y$a_idle_reader_0 (not y$1)))
(assert (= y$a_idle_reader_1 (not y$3)))
(assert (= y$a_idle_reader_10 (not y$5)))
(assert (= y$a_idle_reader_11 (not y$7)))
(assert (= y$a_idle_reader_2 (not y$9)))
(assert (= y$a_idle_reader_3 (not y$11)))
(assert (= y$a_idle_reader_4 (not y$13)))
(assert (= y$a_idle_reader_5 (not y$15)))
(assert (= y$a_idle_reader_6 (not y$17)))
(assert (= y$a_idle_reader_7 (not y$19)))
(assert (= y$a_idle_reader_8 (not y$21)))
(assert (= y$a_idle_reader_9 (not y$23)))
(assert (= y$a_idle_writer_0 (not y$25)))
(assert (= y$a_idle_writer_1 (not y$27)))
(assert (= y$a_idle_writer_2 (not y$29)))
(assert (= y$a_idle_writer_3 (not y$31)))
(assert (= y$a_idle_writer_4 (not y$33)))
(assert (= y$a_idle_writer_5 (not y$35)))
(assert (= y$a_idle_writer_6 (not y$37)))
(assert (= y$a_q_error (not y$39)))
(assert (= y$a_readers_active (not y$41)))
(assert (= y$a_reading_reader_0 (not y$43)))
(assert (= y$a_reading_reader_1 (not y$45)))
(assert (= y$a_reading_reader_10 (not y$47)))
(assert (= y$a_reading_reader_11 (not y$49)))
(assert (= y$a_reading_reader_2 (not y$51)))
(assert (= y$a_reading_reader_3 (not y$53)))
(assert (= y$a_reading_reader_4 (not y$55)))
(assert (= y$a_reading_reader_5 (not y$57)))
(assert (= y$a_reading_reader_6 (not y$59)))
(assert (= y$a_reading_reader_7 (not y$61)))
(assert (= y$a_reading_reader_8 (not y$63)))
(assert (= y$a_reading_reader_9 (not y$65)))
(assert (= y$a_ready (not y$67)))
(assert (= y$a_writer_active (not y$69)))
(assert (= y$a_writing_writer_0 (not y$71)))
(assert (= y$a_writing_writer_1 (not y$73)))
(assert (= y$a_writing_writer_2 (not y$75)))
(assert (= y$a_writing_writer_3 (not y$77)))
(assert (= y$a_writing_writer_4 (not y$79)))
(assert (= y$a_writing_writer_5 (not y$81)))
(assert (= y$a_writing_writer_6 (not y$83)))
(assert (= y$dve_invalid (not y$85)))
(assert (= y$88 (= y$n0s8 y$v_activeR)))
(assert (= y$prop (not y$3392)))
(assert (= y$id46_op (and y$a_q_error y$85)))
(assert (= y$id46_op (not y$3303)))
(assert (= y$3304 (= y$prop y$3303)))
(assert (= y$3399 (and y$1 y$3 y$5 y$7 y$9 y$11 y$13 y$15 y$17 y$19 y$21 y$23 y$25 y$27 y$29 y$31 y$33 y$35 y$37 y$39 y$41 y$43 y$45 y$47 y$49 y$51 y$53 y$55 y$57 y$59 y$61 y$63 y$65 y$67 y$69 y$71 y$73 y$75 y$77 y$79 y$81 y$83 y$85 y$88 y$3392 y$3304)))
(assert y$3399)
(check-sat)
(exit)
